(declare-fun e () String)
(declare-fun c () String)
(declare-fun g () String)
(declare-fun b () String)
(declare-fun d () String)
(declare-fun a () String)
(declare-fun h () String)
(assert (= (str.++ a g h a "g" d) (str.++ b "gcd")))
(assert (= (str.++ "d" d c) (str.++ "b" h c)))
(assert (= (str.++ e "b") (str.++ "gd" g "h")))

(check-sat)
